N = 16;
M = 36;
Edge_Start = [1, 1, 2, 3, 3, 4, 5, 7, 7, 8, 9, 9, 10, 11, 12, 13, 14, 15, 2, 6, 3, 4, 8, 5, 10, 8, 12, 9, 10, 14, 11, 16, 13, 14, 15, 16];
Edge_End = [2, 6, 3, 4, 8, 5, 10, 8, 12, 9, 10, 14, 11, 16, 13, 14, 15, 16, 1, 1, 2, 3, 3, 4, 5, 7, 7, 8, 9, 9, 10, 11, 12, 13, 14, 15];
L = [14, 16, 11, 8, 18, 4, 16, 16, 7, 19, 12, 19, 15, 16, 16, 3, 17, 2, 14, 16, 11, 8, 18, 4, 16, 16, 7, 19, 12, 19, 15, 16, 16, 3, 17, 2];
T = [9, 24, 6, 2, 13, 1, 18, 11, 10, 22, 10, 9, 10, 14, 7, 3, 7, 1, 9, 24, 6, 2, 13, 1, 18, 11, 10, 22, 10, 9, 10, 14, 7, 3, 7, 1];
Lower_Bound = [0, 9, 15, 17, 18, 24, 39, 28, 46, 36, 46, 49, 56, 55, 61, 60];
Upper_Bound = [0, 9, 15, 17, 18, 24, 39, 28, 46, 36, 46, 49, 56, 55, 61, 60];
Start = 1;
End = 16;
Time = 60;
